NAME : pr439
COMMENT : 439-city
TYPE : TOUR
DIMENSION : 439
TOUR_LENGTH : 109203
ERROR : 0.0185232
TOUR_SECTION
47
46
43
48
45
44
42
40
39
41
38
37
56
78
79
80
81
55
54
53
52
50
82
83
84
148
185
225
226
227
282
438
434
435
436
437
433
402
407
408
410
409
424
425
423
426
429
432
431
421
422
411
412
406
405
398
391
390
380
374
373
372
371
381
393
392
397
395
396
394
383
382
370
340
341
342
343
283
228
281
280
229
186
187
188
224
230
231
279
284
285
286
339
344
345
347
348
346
287
288
289
290
291
292
358
357
355
356
354
353
351
352
350
349
376
375
379
378
388
389
413
420
419
418
414
415
430
428
427
417
416
404
403
401
399
400
387
386
385
384
377
367
366
365
364
363
368
362
361
360
369
359
338
337
336
335
334
333
332
299
298
297
296
295
294
293
278
277
276
275
274
273
272
331
329
330
328
327
326
325
324
323
322
321
320
319
318
317
316
315
314
313
312
311
310
309
308
307
306
305
304
303
302
301
300
271
270
269
268
267
266
265
264
263
262
261
260
259
258
257
256
255
254
253
252
251
248
247
246
245
244
243
242
241
240
239
238
237
236
235
234
233
232
223
222
221
220
219
218
217
216
215
214
213
212
211
210
209
249
250
208
207
206
205
204
202
201
200
199
198
197
196
195
194
193
192
182
191
183
190
189
184
144
147
146
143
145
111
110
109
108
107
106
105
104
103
112
113
115
117
118
120
119
116
114
102
101
91
92
93
99
100
121
138
139
140
141
151
142
149
150
152
153
154
181
180
179
178
177
176
175
174
203
173
172
171
170
169
167
168
165
166
164
163
162
161
160
159
158
157
156
155
137
136
135
134
133
132
131
130
129
127
128
126
125
123
122
124
98
97
96
95
94
17
18
19
20
21
66
67
68
69
70
90
89
88
87
71
64
65
23
22
24
63
25
26
27
28
62
72
73
30
29
31
61
74
75
60
59
58
76
86
85
77
57
36
35
34
33
32
16
15
14
13
12
11
10
9
8
7
6
5
4
3
0
2
1
51
49
-1
EOF
